Maximize
 0
Subject To
 epc_0!1: -2.6929416780444626 y_1!1_2!1 +46.60412418609556 y_1!2_2!1 -45.38247572721272 y_1!3_2!1 -59.78562247647976 y_1!4_2!1 -79.33847512707112 y_1!5_2!1 +83.11493212056078 y_1!1_2!2 -52.43706603190048 y_1!2_2!2 +87.86224217822493 y_1!3_2!2 +18.55247379501897 y_1!4_2!2 -85.20151925139436 y_1!5_2!2 +83.44104938057444 y_1!1_2!3 +53.041245664114 y_1!2_2!3 +33.99984953906528 y_1!3_2!3 +33.29056302056432 y_1!4_2!3 -95.01492297443903 y_1!5_2!3 -87.7632945554651 y_1!1_2!4 +39.50626827778768 y_1!2_2!4 -20.074791760206452 y_1!3_2!4 -86.39149117389499 y_1!4_2!4 +69.98859495048924 y_1!5_2!4 -36.42141984010681 y_1!1_2!5 +42.132592137930004 y_1!2_2!5 +11.725746990120328 y_1!3_2!5 +47.48845741400294 y_1!4_2!5 +25.237641049771426 y_1!5_2!5 + lambda_0!1 - mu_0 = 0
 epc_0!2: +69.80380215015288 y_1!1_2!1 -8.665656440805549 y_1!2_2!1 +91.70166094292992 y_1!3_2!1 -70.26019968457999 y_1!4_2!1 -65.76236613565969 y_1!5_2!1 +33.10745824009547 y_1!1_2!2 +51.043864666248 y_1!2_2!2 -21.079471087202492 y_1!3_2!2 -94.36938285142631 y_1!4_2!2 +13.294447613340793 y_1!5_2!2 +58.980879170951226 y_1!1_2!3 -40.24478701021492 y_1!2_2!3 -10.696936161404906 y_1!3_2!3 -98.87237482909073 y_1!4_2!3 -41.868340729308784 y_1!5_2!3 +83.68612339696921 y_1!1_2!4 +61.55144227995601 y_1!2_2!4 +94.52222066874018 y_1!3_2!4 -17.56665525078813 y_1!4_2!4 -78.97598252339029 y_1!5_2!4 -35.594973683820825 y_1!1_2!5 -92.17243080726185 y_1!2_2!5 -17.093872120484946 y_1!3_2!5 -54.154866992477025 y_1!4_2!5 +12.043507845195606 y_1!5_2!5 + lambda_0!2 - mu_0 = 0
 epc_0!3: -84.02520293953735 y_1!1_2!1 -62.67755949198979 y_1!2_2!1 +22.317047701151324 y_1!3_2!1 -86.13490038474913 y_1!4_2!1 +79.36098724908277 y_1!5_2!1 +17.975033672179634 y_1!1_2!2 -20.404477082577316 y_1!2_2!2 -60.65989864907046 y_1!3_2!2 -51.65770808271015 y_1!4_2!2 -72.54574579805349 y_1!5_2!2 -9.044728493359202 y_1!1_2!3 +43.19517285103959 y_1!2_2!3 +46.87787872371513 y_1!3_2!3 +40.31354933529309 y_1!4_2!3 +50.74016665699409 y_1!5_2!3 +39.30810010437969 y_1!1_2!4 -38.60866175195918 y_1!2_2!4 -36.13638768608052 y_1!3_2!4 +87.78701810615138 y_1!4_2!4 -0.24803706657161229 y_1!5_2!4 -10.37981842448528 y_1!1_2!5 -38.842277323609764 y_1!2_2!5 -93.99357246056783 y_1!3_2!5 -40.01352092461987 y_1!4_2!5 -65.20828302196178 y_1!5_2!5 + lambda_0!3 - mu_0 = 0
 epc_0!4: +11.46734753222323 y_1!1_2!1 -49.302944632925886 y_1!2_2!1 +60.27606509237518 y_1!3_2!1 +5.862000827201669 y_1!4_2!1 +35.64835419577511 y_1!5_2!1 -31.326037856919015 y_1!1_2!2 +1.6511419987548663 y_1!2_2!2 +77.54499494067409 y_1!3_2!2 -88.864025448902 y_1!4_2!2 +35.51572242199907 y_1!5_2!2 -29.222566281714762 y_1!1_2!3 -42.75174802678778 y_1!2_2!3 -53.13950478171523 y_1!3_2!3 -72.62886526024474 y_1!4_2!3 +13.95609888029918 y_1!5_2!3 -12.942580714205903 y_1!1_2!4 +93.94952325378415 y_1!2_2!4 +69.60569128945616 y_1!3_2!4 +2.0277753253475623 y_1!4_2!4 +10.549287282623055 y_1!5_2!4 -6.2403501817060345 y_1!1_2!5 +90.19886362507566 y_1!2_2!5 -25.238704473184143 y_1!3_2!5 -24.839294791164562 y_1!4_2!5 +19.951284683231464 y_1!5_2!5 + lambda_0!4 - mu_0 = 0
 epc_0!5: -97.65255842423883 y_1!1_2!1 -99.45047929275125 y_1!2_2!1 +74.78691193567954 y_1!3_2!1 -48.113764740277134 y_1!4_2!1 -87.55275842223078 y_1!5_2!1 +10.165146195120414 y_1!1_2!2 +96.97891949507772 y_1!2_2!2 -23.37527147482092 y_1!3_2!2 +30.94909031637357 y_1!4_2!2 -37.042455473040434 y_1!5_2!2 -11.258744036829228 y_1!1_2!3 +11.573404880622846 y_1!2_2!3 +73.45387650423729 y_1!3_2!3 -96.23691339878788 y_1!4_2!3 -59.10249226249176 y_1!5_2!3 +58.20010768658514 y_1!1_2!4 +42.324189459611375 y_1!2_2!4 +90.30976316569112 y_1!3_2!4 +36.34571777029075 y_1!4_2!4 -59.94082785360928 y_1!5_2!4 +35.61651447978775 y_1!1_2!5 -5.624729943611541 y_1!2_2!5 -84.84478376779789 y_1!3_2!5 +90.24953531077333 y_1!4_2!5 -81.58554495393051 y_1!5_2!5 + lambda_0!5 - mu_0 = 0
 dc_0: x_0!1 + x_0!2 + x_0!3 + x_0!4 + x_0!5 = 1
 bc_0!1: lambda_0!1 +298.99633412019983 x_0!1 <= 298.99633412019983
 bc_0!2: lambda_0!2 +298.99633412019983 x_0!2 <= 298.99633412019983
 bc_0!3: lambda_0!3 +298.99633412019983 x_0!3 <= 298.99633412019983
 bc_0!4: lambda_0!4 +298.99633412019983 x_0!4 <= 298.99633412019983
 bc_0!5: lambda_0!5 +298.99633412019983 x_0!5 <= 298.99633412019983
 sum_0!1: y_1!1_2!1 - x_1!1 - x_2!1 >= -1
 idk_0!1!1: y_1!1_2!1 - x_1!1 <= 0
 idk_0!1!2: y_1!1_2!1 - x_2!1 <= 0
 sum_0!2: y_1!2_2!1 - x_1!2 - x_2!1 >= -1
 idk_0!2!1: y_1!2_2!1 - x_1!2 <= 0
 idk_0!2!2: y_1!2_2!1 - x_2!1 <= 0
 sum_0!3: y_1!3_2!1 - x_1!3 - x_2!1 >= -1
 idk_0!3!1: y_1!3_2!1 - x_1!3 <= 0
 idk_0!3!2: y_1!3_2!1 - x_2!1 <= 0
 sum_0!4: y_1!4_2!1 - x_1!4 - x_2!1 >= -1
 idk_0!4!1: y_1!4_2!1 - x_1!4 <= 0
 idk_0!4!2: y_1!4_2!1 - x_2!1 <= 0
 sum_0!5: y_1!5_2!1 - x_1!5 - x_2!1 >= -1
 idk_0!5!1: y_1!5_2!1 - x_1!5 <= 0
 idk_0!5!2: y_1!5_2!1 - x_2!1 <= 0
 sum_0!6: y_1!1_2!2 - x_1!1 - x_2!2 >= -1
 idk_0!6!1: y_1!1_2!2 - x_1!1 <= 0
 idk_0!6!2: y_1!1_2!2 - x_2!2 <= 0
 sum_0!7: y_1!2_2!2 - x_1!2 - x_2!2 >= -1
 idk_0!7!1: y_1!2_2!2 - x_1!2 <= 0
 idk_0!7!2: y_1!2_2!2 - x_2!2 <= 0
 sum_0!8: y_1!3_2!2 - x_1!3 - x_2!2 >= -1
 idk_0!8!1: y_1!3_2!2 - x_1!3 <= 0
 idk_0!8!2: y_1!3_2!2 - x_2!2 <= 0
 sum_0!9: y_1!4_2!2 - x_1!4 - x_2!2 >= -1
 idk_0!9!1: y_1!4_2!2 - x_1!4 <= 0
 idk_0!9!2: y_1!4_2!2 - x_2!2 <= 0
 sum_0!10: y_1!5_2!2 - x_1!5 - x_2!2 >= -1
 idk_0!10!1: y_1!5_2!2 - x_1!5 <= 0
 idk_0!10!2: y_1!5_2!2 - x_2!2 <= 0
 sum_0!11: y_1!1_2!3 - x_1!1 - x_2!3 >= -1
 idk_0!11!1: y_1!1_2!3 - x_1!1 <= 0
 idk_0!11!2: y_1!1_2!3 - x_2!3 <= 0
 sum_0!12: y_1!2_2!3 - x_1!2 - x_2!3 >= -1
 idk_0!12!1: y_1!2_2!3 - x_1!2 <= 0
 idk_0!12!2: y_1!2_2!3 - x_2!3 <= 0
 sum_0!13: y_1!3_2!3 - x_1!3 - x_2!3 >= -1
 idk_0!13!1: y_1!3_2!3 - x_1!3 <= 0
 idk_0!13!2: y_1!3_2!3 - x_2!3 <= 0
 sum_0!14: y_1!4_2!3 - x_1!4 - x_2!3 >= -1
 idk_0!14!1: y_1!4_2!3 - x_1!4 <= 0
 idk_0!14!2: y_1!4_2!3 - x_2!3 <= 0
 sum_0!15: y_1!5_2!3 - x_1!5 - x_2!3 >= -1
 idk_0!15!1: y_1!5_2!3 - x_1!5 <= 0
 idk_0!15!2: y_1!5_2!3 - x_2!3 <= 0
 sum_0!16: y_1!1_2!4 - x_1!1 - x_2!4 >= -1
 idk_0!16!1: y_1!1_2!4 - x_1!1 <= 0
 idk_0!16!2: y_1!1_2!4 - x_2!4 <= 0
 sum_0!17: y_1!2_2!4 - x_1!2 - x_2!4 >= -1
 idk_0!17!1: y_1!2_2!4 - x_1!2 <= 0
 idk_0!17!2: y_1!2_2!4 - x_2!4 <= 0
 sum_0!18: y_1!3_2!4 - x_1!3 - x_2!4 >= -1
 idk_0!18!1: y_1!3_2!4 - x_1!3 <= 0
 idk_0!18!2: y_1!3_2!4 - x_2!4 <= 0
 sum_0!19: y_1!4_2!4 - x_1!4 - x_2!4 >= -1
 idk_0!19!1: y_1!4_2!4 - x_1!4 <= 0
 idk_0!19!2: y_1!4_2!4 - x_2!4 <= 0
 sum_0!20: y_1!5_2!4 - x_1!5 - x_2!4 >= -1
 idk_0!20!1: y_1!5_2!4 - x_1!5 <= 0
 idk_0!20!2: y_1!5_2!4 - x_2!4 <= 0
 sum_0!21: y_1!1_2!5 - x_1!1 - x_2!5 >= -1
 idk_0!21!1: y_1!1_2!5 - x_1!1 <= 0
 idk_0!21!2: y_1!1_2!5 - x_2!5 <= 0
 sum_0!22: y_1!2_2!5 - x_1!2 - x_2!5 >= -1
 idk_0!22!1: y_1!2_2!5 - x_1!2 <= 0
 idk_0!22!2: y_1!2_2!5 - x_2!5 <= 0
 sum_0!23: y_1!3_2!5 - x_1!3 - x_2!5 >= -1
 idk_0!23!1: y_1!3_2!5 - x_1!3 <= 0
 idk_0!23!2: y_1!3_2!5 - x_2!5 <= 0
 sum_0!24: y_1!4_2!5 - x_1!4 - x_2!5 >= -1
 idk_0!24!1: y_1!4_2!5 - x_1!4 <= 0
 idk_0!24!2: y_1!4_2!5 - x_2!5 <= 0
 sum_0!25: y_1!5_2!5 - x_1!5 - x_2!5 >= -1
 idk_0!25!1: y_1!5_2!5 - x_1!5 <= 0
 idk_0!25!2: y_1!5_2!5 - x_2!5 <= 0
 epc_1!1: +91.38095229176307 y_0!1_2!1 -6.400347247520386 y_0!2_2!1 +19.174785064562357 y_0!3_2!1 -70.07984545080433 y_0!4_2!1 +50.542830886552736 y_0!5_2!1 +53.40538650626115 y_0!1_2!2 +16.452713360964736 y_0!2_2!2 -65.85981622850352 y_0!3_2!2 -44.56171636739514 y_0!4_2!2 -63.853414487043715 y_0!5_2!2 +96.36998983344219 y_0!1_2!3 -17.322472440139464 y_0!2_2!3 -20.297935594791255 y_0!3_2!3 +14.074160030508494 y_0!4_2!3 +55.69606426908132 y_0!5_2!3 +87.55398872333305 y_0!1_2!4 -72.09193093158422 y_0!2_2!4 -65.08243552484001 y_0!3_2!4 +51.75108009686912 y_0!4_2!4 +53.29310098167133 y_0!5_2!4 +82.53695778706503 y_0!1_2!5 -68.49291928474497 y_0!2_2!5 -24.794115112253806 y_0!3_2!5 +56.894821395500685 y_0!4_2!5 -52.44992523744683 y_0!5_2!5 + lambda_1!1 - mu_1 = 0
 epc_1!2: -27.207524447640722 y_0!1_2!1 -86.80330718677635 y_0!2_2!1 +21.542796315965134 y_0!3_2!1 -57.54935285277778 y_0!4_2!1 -77.7071611330266 y_0!5_2!1 +45.83413854031426 y_0!1_2!2 +32.730428264637226 y_0!2_2!2 +57.95941789874988 y_0!3_2!2 +7.090549722558777 y_0!4_2!2 +7.57295183310265 y_0!5_2!2 +17.819136181281465 y_0!1_2!3 +2.0976455625252584 y_0!2_2!3 -79.53670026924205 y_0!3_2!3 +36.299409308048524 y_0!4_2!3 +80.77487359445061 y_0!5_2!3 -71.11688255968296 y_0!1_2!4 +8.632495984686145 y_0!2_2!4 +94.26248513064587 y_0!3_2!4 +13.406421305739485 y_0!4_2!4 -30.614463479176266 y_0!5_2!4 +35.63171250277247 y_0!1_2!5 +93.64704679082467 y_0!2_2!5 +34.07452685950034 y_0!3_2!5 -90.66848383555433 y_0!4_2!5 +10.406960507709798 y_0!5_2!5 + lambda_1!2 - mu_1 = 0
 epc_1!3: -46.57878332656431 y_0!1_2!1 -41.343797500987755 y_0!2_2!1 -7.9069362250162385 y_0!3_2!1 -17.46036701055978 y_0!4_2!1 +72.96581605348294 y_0!5_2!1 -27.65679276332608 y_0!1_2!2 +9.23522908850478 y_0!2_2!2 -16.898742113775228 y_0!3_2!2 +20.556022472350975 y_0!4_2!2 +0.9723806982935486 y_0!5_2!2 -95.7345710237101 y_0!1_2!3 +22.668853201305026 y_0!2_2!3 +33.310680092008056 y_0!3_2!3 +85.09885328779617 y_0!4_2!3 +31.01732716236475 y_0!5_2!3 -13.944058011842884 y_0!1_2!4 -26.668372071378016 y_0!2_2!4 -64.4206478669185 y_0!3_2!4 -69.06150406599323 y_0!4_2!4 -32.83563990992917 y_0!5_2!4 +68.41733114363771 y_0!1_2!5 +83.97869928574386 y_0!2_2!5 +0.6688560040386307 y_0!3_2!5 +60.934757306103165 y_0!4_2!5 +8.486002979140196 y_0!5_2!5 + lambda_1!3 - mu_1 = 0
 epc_1!4: +80.16816181902459 y_0!1_2!1 +93.60215113280995 y_0!2_2!1 +48.02516617553238 y_0!3_2!1 -45.296063087583825 y_0!4_2!1 +18.066097353243265 y_0!5_2!1 -9.320416793797335 y_0!1_2!2 -28.803762471439782 y_0!2_2!2 +57.683408586617986 y_0!3_2!2 +81.18487175827946 y_0!4_2!2 +15.067749813329925 y_0!5_2!2 +7.370959470773215 y_0!1_2!3 -59.9635007623595 y_0!2_2!3 +8.8853578211465 y_0!3_2!3 -54.98824692499635 y_0!4_2!3 +24.711130722333834 y_0!5_2!3 +39.45268745866241 y_0!1_2!4 -49.55104196484918 y_0!2_2!4 +5.59872047421392 y_0!3_2!4 +45.61454657463045 y_0!4_2!4 +34.9818919599515 y_0!5_2!4 +72.13187950952889 y_0!1_2!5 +27.10227807950416 y_0!2_2!5 +12.304793197950218 y_0!3_2!5 +47.64682259279718 y_0!4_2!5 -49.60342361015204 y_0!5_2!5 + lambda_1!4 - mu_1 = 0
 epc_1!5: -68.01687778474354 y_0!1_2!1 -44.10245539698079 y_0!2_2!1 -98.92471955766968 y_0!3_2!1 -46.44279781655152 y_0!4_2!1 +51.449160484164935 y_0!5_2!1 +51.03433696402095 y_0!1_2!2 -42.30055307033766 y_0!2_2!2 +57.583997106576646 y_0!3_2!2 +77.32779971040463 y_0!4_2!2 +33.13308589739512 y_0!5_2!2 -43.623256937072476 y_0!1_2!3 -58.402667077198565 y_0!2_2!3 +33.70771006993883 y_0!3_2!3 -28.66015735584 y_0!4_2!3 -39.59117224819191 y_0!5_2!3 -24.472917687990133 y_0!1_2!4 +24.96675543625703 y_0!2_2!4 +5.366642026190462 y_0!3_2!4 +94.91302283057169 y_0!4_2!4 +44.81826090673238 y_0!5_2!4 +76.0720973383934 y_0!1_2!5 -36.774521015556786 y_0!2_2!5 -79.54360496459748 y_0!3_2!5 -59.08029888777986 y_0!4_2!5 -4.312245942920924 y_0!5_2!5 + lambda_1!5 - mu_1 = 0
 dc_1: x_1!1 + x_1!2 + x_1!3 + x_1!4 + x_1!5 = 1
 bc_1!1: lambda_1!1 +298.99633412019983 x_1!1 <= 298.99633412019983
 bc_1!2: lambda_1!2 +298.99633412019983 x_1!2 <= 298.99633412019983
 bc_1!3: lambda_1!3 +298.99633412019983 x_1!3 <= 298.99633412019983
 bc_1!4: lambda_1!4 +298.99633412019983 x_1!4 <= 298.99633412019983
 bc_1!5: lambda_1!5 +298.99633412019983 x_1!5 <= 298.99633412019983
 sum_1!1: y_0!1_2!1 - x_0!1 - x_2!1 >= -1
 idk_1!1!0: y_0!1_2!1 - x_0!1 <= 0
 idk_1!1!2: y_0!1_2!1 - x_2!1 <= 0
 sum_1!2: y_0!2_2!1 - x_0!2 - x_2!1 >= -1
 idk_1!2!0: y_0!2_2!1 - x_0!2 <= 0
 idk_1!2!2: y_0!2_2!1 - x_2!1 <= 0
 sum_1!3: y_0!3_2!1 - x_0!3 - x_2!1 >= -1
 idk_1!3!0: y_0!3_2!1 - x_0!3 <= 0
 idk_1!3!2: y_0!3_2!1 - x_2!1 <= 0
 sum_1!4: y_0!4_2!1 - x_0!4 - x_2!1 >= -1
 idk_1!4!0: y_0!4_2!1 - x_0!4 <= 0
 idk_1!4!2: y_0!4_2!1 - x_2!1 <= 0
 sum_1!5: y_0!5_2!1 - x_0!5 - x_2!1 >= -1
 idk_1!5!0: y_0!5_2!1 - x_0!5 <= 0
 idk_1!5!2: y_0!5_2!1 - x_2!1 <= 0
 sum_1!6: y_0!1_2!2 - x_0!1 - x_2!2 >= -1
 idk_1!6!0: y_0!1_2!2 - x_0!1 <= 0
 idk_1!6!2: y_0!1_2!2 - x_2!2 <= 0
 sum_1!7: y_0!2_2!2 - x_0!2 - x_2!2 >= -1
 idk_1!7!0: y_0!2_2!2 - x_0!2 <= 0
 idk_1!7!2: y_0!2_2!2 - x_2!2 <= 0
 sum_1!8: y_0!3_2!2 - x_0!3 - x_2!2 >= -1
 idk_1!8!0: y_0!3_2!2 - x_0!3 <= 0
 idk_1!8!2: y_0!3_2!2 - x_2!2 <= 0
 sum_1!9: y_0!4_2!2 - x_0!4 - x_2!2 >= -1
 idk_1!9!0: y_0!4_2!2 - x_0!4 <= 0
 idk_1!9!2: y_0!4_2!2 - x_2!2 <= 0
 sum_1!10: y_0!5_2!2 - x_0!5 - x_2!2 >= -1
 idk_1!10!0: y_0!5_2!2 - x_0!5 <= 0
 idk_1!10!2: y_0!5_2!2 - x_2!2 <= 0
 sum_1!11: y_0!1_2!3 - x_0!1 - x_2!3 >= -1
 idk_1!11!0: y_0!1_2!3 - x_0!1 <= 0
 idk_1!11!2: y_0!1_2!3 - x_2!3 <= 0
 sum_1!12: y_0!2_2!3 - x_0!2 - x_2!3 >= -1
 idk_1!12!0: y_0!2_2!3 - x_0!2 <= 0
 idk_1!12!2: y_0!2_2!3 - x_2!3 <= 0
 sum_1!13: y_0!3_2!3 - x_0!3 - x_2!3 >= -1
 idk_1!13!0: y_0!3_2!3 - x_0!3 <= 0
 idk_1!13!2: y_0!3_2!3 - x_2!3 <= 0
 sum_1!14: y_0!4_2!3 - x_0!4 - x_2!3 >= -1
 idk_1!14!0: y_0!4_2!3 - x_0!4 <= 0
 idk_1!14!2: y_0!4_2!3 - x_2!3 <= 0
 sum_1!15: y_0!5_2!3 - x_0!5 - x_2!3 >= -1
 idk_1!15!0: y_0!5_2!3 - x_0!5 <= 0
 idk_1!15!2: y_0!5_2!3 - x_2!3 <= 0
 sum_1!16: y_0!1_2!4 - x_0!1 - x_2!4 >= -1
 idk_1!16!0: y_0!1_2!4 - x_0!1 <= 0
 idk_1!16!2: y_0!1_2!4 - x_2!4 <= 0
 sum_1!17: y_0!2_2!4 - x_0!2 - x_2!4 >= -1
 idk_1!17!0: y_0!2_2!4 - x_0!2 <= 0
 idk_1!17!2: y_0!2_2!4 - x_2!4 <= 0
 sum_1!18: y_0!3_2!4 - x_0!3 - x_2!4 >= -1
 idk_1!18!0: y_0!3_2!4 - x_0!3 <= 0
 idk_1!18!2: y_0!3_2!4 - x_2!4 <= 0
 sum_1!19: y_0!4_2!4 - x_0!4 - x_2!4 >= -1
 idk_1!19!0: y_0!4_2!4 - x_0!4 <= 0
 idk_1!19!2: y_0!4_2!4 - x_2!4 <= 0
 sum_1!20: y_0!5_2!4 - x_0!5 - x_2!4 >= -1
 idk_1!20!0: y_0!5_2!4 - x_0!5 <= 0
 idk_1!20!2: y_0!5_2!4 - x_2!4 <= 0
 sum_1!21: y_0!1_2!5 - x_0!1 - x_2!5 >= -1
 idk_1!21!0: y_0!1_2!5 - x_0!1 <= 0
 idk_1!21!2: y_0!1_2!5 - x_2!5 <= 0
 sum_1!22: y_0!2_2!5 - x_0!2 - x_2!5 >= -1
 idk_1!22!0: y_0!2_2!5 - x_0!2 <= 0
 idk_1!22!2: y_0!2_2!5 - x_2!5 <= 0
 sum_1!23: y_0!3_2!5 - x_0!3 - x_2!5 >= -1
 idk_1!23!0: y_0!3_2!5 - x_0!3 <= 0
 idk_1!23!2: y_0!3_2!5 - x_2!5 <= 0
 sum_1!24: y_0!4_2!5 - x_0!4 - x_2!5 >= -1
 idk_1!24!0: y_0!4_2!5 - x_0!4 <= 0
 idk_1!24!2: y_0!4_2!5 - x_2!5 <= 0
 sum_1!25: y_0!5_2!5 - x_0!5 - x_2!5 >= -1
 idk_1!25!0: y_0!5_2!5 - x_0!5 <= 0
 idk_1!25!2: y_0!5_2!5 - x_2!5 <= 0
 epc_2!1: -50.69821440312552 y_0!1_1!1 +66.5620616520911 y_0!2_1!1 -62.077357218610786 y_0!3_1!1 +28.966275749439717 y_0!4_1!1 -81.96291847054371 y_0!5_1!1 -16.413054982917757 y_0!1_1!2 +87.75267331152003 y_0!2_1!2 +73.54420485662695 y_0!3_1!2 +28.239934552727163 y_0!4_1!2 -51.549914160500144 y_0!5_1!2 +69.12239702983868 y_0!1_1!3 -4.494839578224344 y_0!2_1!3 +1.3537904214186085 y_0!3_1!3 +69.07528023458707 y_0!4_1!3 +97.00556354856732 y_0!5_1!3 -89.4992785914477 y_0!1_1!4 -60.30589580549308 y_0!2_1!4 +10.05943960370334 y_0!3_1!4 +56.00505354381593 y_0!4_1!4 +1.9226968554289385 y_0!5_1!4 -51.332937111982766 y_0!1_1!5 -69.51127528887118 y_0!2_1!5 -42.790101715692174 y_0!3_1!5 +46.915161506087514 y_0!4_1!5 +61.60689393093048 y_0!5_1!5 + lambda_2!1 - mu_2 = 0
 epc_2!2: +36.62758074472933 y_0!1_1!1 -41.480073968187185 y_0!2_1!1 -74.93363400682938 y_0!3_1!1 -2.818247417381855 y_0!4_1!1 -72.66894291357352 y_0!5_1!1 +90.98557330788375 y_0!1_1!2 -0.5525791041298902 y_0!2_1!2 -90.79909607411136 y_0!3_1!2 -99.14894116414472 y_0!4_1!2 +97.96836804480398 y_0!5_1!2 +9.859639728588434 y_0!1_1!3 +37.288791639274876 y_0!2_1!3 -48.722508981156395 y_0!3_1!3 +76.93523348834282 y_0!4_1!3 -62.90193427750512 y_0!5_1!3 +34.274386997740265 y_0!1_1!4 -88.82442383206693 y_0!2_1!4 -84.542285834315 y_0!3_1!4 -15.266223741218951 y_0!4_1!4 -67.72296718003459 y_0!5_1!4 +94.05093966414935 y_0!1_1!5 +33.49496375287333 y_0!2_1!5 -18.637007205281435 y_0!3_1!5 +14.352775787919896 y_0!4_1!5 +56.094358917156086 y_0!5_1!5 + lambda_2!2 - mu_2 = 0
 epc_2!3: +83.29712451295114 y_0!1_1!1 -68.53366864708207 y_0!2_1!1 +82.19798823609793 y_0!3_1!1 -68.77158720125837 y_0!4_1!1 +16.27370621939508 y_0!5_1!1 -63.03325809696349 y_0!1_1!2 -47.20999642966157 y_0!2_1!2 -3.201454595608638 y_0!3_1!2 -97.07094632402504 y_0!4_1!2 +74.27017976284594 y_0!5_1!2 +77.97709877611604 y_0!1_1!3 +99.32137452739005 y_0!2_1!3 +87.47524567279868 y_0!3_1!3 +43.01814600886428 y_0!4_1!3 -39.08678702719861 y_0!5_1!3 -89.47656981052268 y_0!1_1!4 +72.99012852917656 y_0!2_1!4 -97.0232446797539 y_0!3_1!4 -58.134637168812844 y_0!4_1!4 +93.47376509086092 y_0!5_1!4 -34.00359335637479 y_0!1_1!5 -15.56787492009461 y_0!2_1!5 -56.69527819190758 y_0!3_1!5 -63.06578724591914 y_0!4_1!5 -38.904833526741726 y_0!5_1!5 + lambda_2!3 - mu_2 = 0
 epc_2!4: +95.15730841687045 y_0!1_1!1 -99.67495959280977 y_0!2_1!1 +63.121429776863295 y_0!3_1!1 +16.795332590685646 y_0!4_1!1 +53.46130194135705 y_0!5_1!1 +57.3149103214038 y_0!1_1!2 +29.89506120430815 y_0!2_1!2 -37.061891880015786 y_0!3_1!2 -47.97414188007687 y_0!4_1!2 +85.44319713999457 y_0!5_1!2 +32.956770208387184 y_0!1_1!3 -11.876519984401398 y_0!2_1!3 +1.1812921111347805 y_0!3_1!3 +67.89982901630424 y_0!4_1!3 +66.96523362397866 y_0!5_1!3 -17.696465126084405 y_0!1_1!4 -87.03231618728404 y_0!2_1!4 +10.966802812129202 y_0!3_1!4 +26.54227905648621 y_0!4_1!4 -44.78483328169243 y_0!5_1!4 -31.22673596761858 y_0!1_1!5 +68.87727332231262 y_0!2_1!5 -81.0339935850045 y_0!3_1!5 -84.41733089277928 y_0!4_1!5 -36.46300662047255 y_0!5_1!5 + lambda_2!4 - mu_2 = 0
 epc_2!5: -80.94679597786939 y_0!1_1!1 +19.91674215913757 y_0!2_1!1 -20.971625923218312 y_0!3_1!1 -61.55227253031414 y_0!4_1!1 +91.6950542308094 y_0!5_1!1 +31.962120963283468 y_0!1_1!2 +74.38744244435097 y_0!2_1!2 +1.7676649788591448 y_0!3_1!2 -56.170360588930436 y_0!4_1!2 -97.46206848411138 y_0!5_1!2 +38.63058146520001 y_0!1_1!3 -6.146920572948503 y_0!2_1!3 -27.194781387064197 y_0!3_1!3 -75.99842603735036 y_0!4_1!3 -70.14351336066535 y_0!5_1!3 +77.64062342809652 y_0!1_1!4 +87.85560964696316 y_0!2_1!4 +72.90539879633647 y_0!3_1!4 +45.82334610486848 y_0!4_1!4 -70.1871659383987 y_0!5_1!4 -99.2620054601878 y_0!1_1!5 +48.95741356120607 y_0!2_1!5 +12.246794985137143 y_0!3_1!5 +70.55180039783272 y_0!4_1!5 +57.581828686102426 y_0!5_1!5 + lambda_2!5 - mu_2 = 0
 dc_2: x_2!1 + x_2!2 + x_2!3 + x_2!4 + x_2!5 = 1
 bc_2!1: lambda_2!1 +298.99633412019983 x_2!1 <= 298.99633412019983
 bc_2!2: lambda_2!2 +298.99633412019983 x_2!2 <= 298.99633412019983
 bc_2!3: lambda_2!3 +298.99633412019983 x_2!3 <= 298.99633412019983
 bc_2!4: lambda_2!4 +298.99633412019983 x_2!4 <= 298.99633412019983
 bc_2!5: lambda_2!5 +298.99633412019983 x_2!5 <= 298.99633412019983
 sum_2!1: y_0!1_1!1 - x_0!1 - x_1!1 >= -1
 idk_2!1!0: y_0!1_1!1 - x_0!1 <= 0
 idk_2!1!1: y_0!1_1!1 - x_1!1 <= 0
 sum_2!2: y_0!2_1!1 - x_0!2 - x_1!1 >= -1
 idk_2!2!0: y_0!2_1!1 - x_0!2 <= 0
 idk_2!2!1: y_0!2_1!1 - x_1!1 <= 0
 sum_2!3: y_0!3_1!1 - x_0!3 - x_1!1 >= -1
 idk_2!3!0: y_0!3_1!1 - x_0!3 <= 0
 idk_2!3!1: y_0!3_1!1 - x_1!1 <= 0
 sum_2!4: y_0!4_1!1 - x_0!4 - x_1!1 >= -1
 idk_2!4!0: y_0!4_1!1 - x_0!4 <= 0
 idk_2!4!1: y_0!4_1!1 - x_1!1 <= 0
 sum_2!5: y_0!5_1!1 - x_0!5 - x_1!1 >= -1
 idk_2!5!0: y_0!5_1!1 - x_0!5 <= 0
 idk_2!5!1: y_0!5_1!1 - x_1!1 <= 0
 sum_2!6: y_0!1_1!2 - x_0!1 - x_1!2 >= -1
 idk_2!6!0: y_0!1_1!2 - x_0!1 <= 0
 idk_2!6!1: y_0!1_1!2 - x_1!2 <= 0
 sum_2!7: y_0!2_1!2 - x_0!2 - x_1!2 >= -1
 idk_2!7!0: y_0!2_1!2 - x_0!2 <= 0
 idk_2!7!1: y_0!2_1!2 - x_1!2 <= 0
 sum_2!8: y_0!3_1!2 - x_0!3 - x_1!2 >= -1
 idk_2!8!0: y_0!3_1!2 - x_0!3 <= 0
 idk_2!8!1: y_0!3_1!2 - x_1!2 <= 0
 sum_2!9: y_0!4_1!2 - x_0!4 - x_1!2 >= -1
 idk_2!9!0: y_0!4_1!2 - x_0!4 <= 0
 idk_2!9!1: y_0!4_1!2 - x_1!2 <= 0
 sum_2!10: y_0!5_1!2 - x_0!5 - x_1!2 >= -1
 idk_2!10!0: y_0!5_1!2 - x_0!5 <= 0
 idk_2!10!1: y_0!5_1!2 - x_1!2 <= 0
 sum_2!11: y_0!1_1!3 - x_0!1 - x_1!3 >= -1
 idk_2!11!0: y_0!1_1!3 - x_0!1 <= 0
 idk_2!11!1: y_0!1_1!3 - x_1!3 <= 0
 sum_2!12: y_0!2_1!3 - x_0!2 - x_1!3 >= -1
 idk_2!12!0: y_0!2_1!3 - x_0!2 <= 0
 idk_2!12!1: y_0!2_1!3 - x_1!3 <= 0
 sum_2!13: y_0!3_1!3 - x_0!3 - x_1!3 >= -1
 idk_2!13!0: y_0!3_1!3 - x_0!3 <= 0
 idk_2!13!1: y_0!3_1!3 - x_1!3 <= 0
 sum_2!14: y_0!4_1!3 - x_0!4 - x_1!3 >= -1
 idk_2!14!0: y_0!4_1!3 - x_0!4 <= 0
 idk_2!14!1: y_0!4_1!3 - x_1!3 <= 0
 sum_2!15: y_0!5_1!3 - x_0!5 - x_1!3 >= -1
 idk_2!15!0: y_0!5_1!3 - x_0!5 <= 0
 idk_2!15!1: y_0!5_1!3 - x_1!3 <= 0
 sum_2!16: y_0!1_1!4 - x_0!1 - x_1!4 >= -1
 idk_2!16!0: y_0!1_1!4 - x_0!1 <= 0
 idk_2!16!1: y_0!1_1!4 - x_1!4 <= 0
 sum_2!17: y_0!2_1!4 - x_0!2 - x_1!4 >= -1
 idk_2!17!0: y_0!2_1!4 - x_0!2 <= 0
 idk_2!17!1: y_0!2_1!4 - x_1!4 <= 0
 sum_2!18: y_0!3_1!4 - x_0!3 - x_1!4 >= -1
 idk_2!18!0: y_0!3_1!4 - x_0!3 <= 0
 idk_2!18!1: y_0!3_1!4 - x_1!4 <= 0
 sum_2!19: y_0!4_1!4 - x_0!4 - x_1!4 >= -1
 idk_2!19!0: y_0!4_1!4 - x_0!4 <= 0
 idk_2!19!1: y_0!4_1!4 - x_1!4 <= 0
 sum_2!20: y_0!5_1!4 - x_0!5 - x_1!4 >= -1
 idk_2!20!0: y_0!5_1!4 - x_0!5 <= 0
 idk_2!20!1: y_0!5_1!4 - x_1!4 <= 0
 sum_2!21: y_0!1_1!5 - x_0!1 - x_1!5 >= -1
 idk_2!21!0: y_0!1_1!5 - x_0!1 <= 0
 idk_2!21!1: y_0!1_1!5 - x_1!5 <= 0
 sum_2!22: y_0!2_1!5 - x_0!2 - x_1!5 >= -1
 idk_2!22!0: y_0!2_1!5 - x_0!2 <= 0
 idk_2!22!1: y_0!2_1!5 - x_1!5 <= 0
 sum_2!23: y_0!3_1!5 - x_0!3 - x_1!5 >= -1
 idk_2!23!0: y_0!3_1!5 - x_0!3 <= 0
 idk_2!23!1: y_0!3_1!5 - x_1!5 <= 0
 sum_2!24: y_0!4_1!5 - x_0!4 - x_1!5 >= -1
 idk_2!24!0: y_0!4_1!5 - x_0!4 <= 0
 idk_2!24!1: y_0!4_1!5 - x_1!5 <= 0
 sum_2!25: y_0!5_1!5 - x_0!5 - x_1!5 >= -1
 idk_2!25!0: y_0!5_1!5 - x_0!5 <= 0
 idk_2!25!1: y_0!5_1!5 - x_1!5 <= 0
Bounds
 mu_0 free
 mu_1 free
 mu_2 free
Binary
 x_0!1 x_0!2 x_0!3 x_0!4 x_0!5 x_1!1 x_1!2 x_1!3 x_1!4 x_1!5 x_2!1 x_2!2 x_2!3 x_2!4 x_2!5
End
